100
150
100
99
98
97
97
96
95
94
94
93
92
91
90
90
88
88
88
87
84
81
80
80
79
79
76
76
75
75
75
73
73
71
71
71
70
70
70
69
69
67
67
66
65
64
64
62
61
60
60
59
59
59
59
58
56
55
54
54
53
53
53
51
51
50
49
48
48
48
47
47
47
46
46
45
45
45
45
45
44
44
44
42
42
41
41
40
39
38
37
34
34
34
33
33
32
32
31
31
31
30
